NAME          BLANK   
ROWS
 N  OBJROW
 L  R0000000
COLUMNS
    C0000000  OBJROW     -852.         R0000000  368.        
    C0000001  OBJROW     -855.         R0000000  707.        
    C0000002  OBJROW     -448.         R0000000  28.         
    C0000003  OBJROW     -946.         R0000000  288.        
    C0000004  OBJROW     -317.         R0000000  548.        
    C0000005  OBJROW     -255.         R0000000  323.        
    C0000006  OBJROW     -148.         R0000000  47.         
    C0000007  OBJROW     -352.         R0000000  515.        
    C0000008  OBJROW     -316.         R0000000  874.        
    C0000009  OBJROW     -586.         R0000000  211.        
    C0000010  OBJROW     -458.         R0000000  19.         
    C0000011  OBJROW     -945.         R0000000  600.        
    C0000012  OBJROW     -922.         R0000000  289.        
    C0000013  OBJROW     -931.         R0000000  231.        
    C0000014  OBJROW     -814.         R0000000  892.        
    C0000015  OBJROW     -718.         R0000000  498.        
    C0000016  OBJROW     -735.         R0000000  478.        
RHS
    RHS       R0000000  15098.      
BOUNDS
 BV BOUND     C0000000  1.          
 BV BOUND     C0000001  1.          
 BV BOUND     C0000002  1.          
 BV BOUND     C0000003  1.          
 BV BOUND     C0000004  1.          
 BV BOUND     C0000005  1.          
 BV BOUND     C0000006  1.          
 BV BOUND     C0000007  1.          
 BV BOUND     C0000008  1.          
 BV BOUND     C0000009  1.          
 BV BOUND     C0000010  1.          
 BV BOUND     C0000011  1.          
 BV BOUND     C0000012  1.          
 BV BOUND     C0000013  1.          
 BV BOUND     C0000014  1.          
 BV BOUND     C0000015  1.          
 BV BOUND     C0000016  1.          
ENDATA
